c Random generated cnf formula, satisfiable: false
p cnf 10 50
8 1 -4 0
-4 2 -5 0
-9 1 10 0
1 -7 -5 0
-5 -4 9 0
-3 1 -8 0
-2 -5 -7 0
9 10 -2 0
-9 8 -10 0
2 4 -6 0
10 5 8 0
-6 10 5 0
-1 4 -10 0
-7 -6 9 0
-8 -10 -3 0
4 -9 6 0
3 -4 6 0
-6 1 -10 0
8 4 10 0
-5 1 8 0
7 -1 8 0
8 -3 -2 0
2 -4 -5 0
-5 -7 10 0
1 -7 -8 0
6 -4 -1 0
-3 4 -9 0
-2 -9 1 0
-2 3 8 0
-1 7 2 0
9 10 8 0
-9 -5 8 0
2 9 5 0
-2 -8 9 0
-1 -10 -4 0
2 -4 -1 0
1 7 -5 0
-7 -10 -6 0
-5 -1 6 0
-2 -8 -1 0
1 5 3 0
-2 -7 8 0
9 1 2 0
-3 -6 -9 0
-1 10 -5 0
-4 6 2 0
9 -3 1 0
1 6 9 0
8 5 -6 0
-7 10 -1 0
